Solver command line: ['C:\\Program Files\\IBM\\ILOG\\CPLEX_Studio2211\\cplex\\bin\\x64_win64\\cplex.exe']


Welcome to IBM(R) ILOG(R) CPLEX(R) Interactive Optimizer 22.1.1.0
  with Simplex, Mixed Integer & Barrier Optimizers
5725-A06 5725-A29 5724-Y48 5724-Y49 5724-Y54 5724-Y55 5655-Y21
Copyright IBM Corp. 1988, 2022.  All Rights Reserved.

Type 'help' for a list of available commands.
Type 'help' followed by a command name for more
information on commands.

CPLEX> Logfile 'cplex.log' closed.
Logfile 'C:\Users\wangy\Documents\GitHub\re_optimization\result_site_specific\tmphjwymki9.cplex.log' open.
CPLEX> Problem 'C:\Users\wangy\Documents\GitHub\re_optimization\result_site_specific\tmpyewp6mak.pyomo.lp' read.
Read time = 0.25 sec. (7.29 ticks)
CPLEX> Problem name         : C:\Users\wangy\Documents\GitHub\re_optimization\result_site_specific\tmpyewp6mak.pyomo.lp
Objective sense      : Minimize
Variables            :   52617  [Nneg: 27764,  Free: 8786,  Binary: 7,
                                 Other: 16060]
Objective nonzeros   :      14
Linear constraints   :   73052  [Less: 39437,  Greater: 3,  Equal: 33612]
  Nonzeros           :  181273
  RHS nonzeros       :    2321

Variables            : Min LB: 0.000000         Max UB: 1.000000       
Objective nonzeros   : Min   : 1.000000         Max   : 1.000000       
Linear constraints   :
  Nonzeros           : Min   : 0.001355638      Max   : 100000.0       
  RHS nonzeros       : Min   : 0.1360000        Max   : 1085.628       
CPLEX> Version identifier: 22.1.1.0 | 2022-11-27 | 9160aff4d
Tried aggregator 3 times.
MIP Presolve eliminated 50734 rows and 31755 columns.
Aggregator did 8848 substitutions.
Reduced MIP has 13470 rows, 12014 columns, and 40114 nonzeros.
Reduced MIP has 5 binaries, 0 generals, 0 SOSs, and 0 indicators.
Presolve time = 0.14 sec. (150.07 ticks)
Found incumbent of value 205229.596685 after 0.16 sec. (172.14 ticks)
Probing time = 0.02 sec. (0.65 ticks)
Tried aggregator 1 time.
Detecting symmetries...
Reduced MIP has 13470 rows, 12014 columns, and 40114 nonzeros.
Reduced MIP has 5 binaries, 0 generals, 0 SOSs, and 0 indicators.
Presolve time = 0.01 sec. (24.15 ticks)
Probing time = 0.00 sec. (0.62 ticks)
MIP emphasis: balance optimality and feasibility.
MIP search method: dynamic search.
Parallel mode: deterministic, using up to 16 threads.
Root relaxation solution time = 0.41 sec. (347.48 ticks)

        Nodes                                         Cuts/
   Node  Left     Objective  IInf  Best Integer    Best Bound    ItCnt     Gap

*     0+    0                       205229.5967   -11810.7133           105.75%
*     0+    0                        25886.7988   -11810.7133           145.62%
      0     0    19134.0347     1    25886.7988    19134.0347       43   26.09%
*     0+    0                        20738.1844    19134.0347             7.74%
*     0+    0                        20737.5883    19134.0347             7.73%
      0     0        cutoff          20737.5883    20737.5883       44    0.00%
Elapsed time = 0.78 sec. (630.45 ticks, tree = 0.01 MB, solutions = 4)

Root node processing (before b&c):
  Real time             =    0.78 sec. (633.14 ticks)
Parallel b&c, 16 threads:
  Real time             =    0.00 sec. (0.00 ticks)
  Sync time (average)   =    0.00 sec.
  Wait time (average)   =    0.00 sec.
                          ------------
Total (root+branch&cut) =    0.78 sec. (633.14 ticks)

Solution pool: 4 solutions saved.

MIP - Integer optimal solution:  Objective =  2.0737588298e+04
Solution time =    0.80 sec.  Iterations = 44  Nodes = 0
Deterministic time = 633.29 ticks  (794.59 ticks/sec)

CPLEX> Incumbent solution written to file 'C:\Users\wangy\Documents\GitHub\re_optimization\result_site_specific\tmpkgw498cc.cplex.sol'.
CPLEX> 
